(set-logic QF_S)
(declare-fun var_0xINPUT_113111 () String)
(assert (and (= (len var_0xINPUT_113111) 0) (= (len var_0xINPUT_113111) 0) (not (= var_0xINPUT_113111 "MEXdqBDMmF"))))
(check-sat var_0xINPUT_113111)